========================================================== 
File name: C:\DEGR\assets\definitions\MSRCPSP_Gen\200_10_64_10_D.def
Creation date: Wed May 03 10:47:14 CEST 2023
Website: http://imopse.ii.pwr.edu.pl/ 
Reference: 
Myszkowski P. B., Skowronski M. E., Olech L., Oslizlo K., 
Hybrid Ant Colony Optimization in solving Multi-Skill Resource-Constrained Project Scheduling Problem, 
Soft Computing, DOI: DOI 10.1007/s00500-014-1455-x 
========================================================== 
General characteristics: 
Tasks: 200
Resources: 10
Precedence relations: 64
Number of skill types: 10
========================================================== 
ResourceID 	 Salary 	 Skills 
1	 	 	55.5	 	 Q9: 3 	  Q1: 2 	  Q4: 2 	  Q7: 3 	  Q3: 3 	  Q8: 2 	 
2	 	 	84.8	 	 Q2: 1 	  Q5: 3 	 
3	 	 	21.4	 	 Q1: 1 	  Q7: 2 	  Q9: 3 	  Q0: 1 	  Q8: 1 	  Q2: 0 	  Q5: 1 	  Q6: 2 	 
4	 	 	92.2	 	 Q3: 0 	  Q5: 1 	  Q0: 0 	  Q8: 2 	  Q9: 0 	  Q6: 3 	  Q7: 2 	  Q1: 2 	 
5	 	 	95.8	 	 Q7: 3 	  Q8: 1 	  Q3: 2 	  Q6: 2 	  Q0: 0 	  Q2: 2 	  Q1: 2 	  Q9: 2 	 
6	 	 	63.9	 	 Q6: 3 	  Q9: 1 	  Q0: 3 	 
7	 	 	26.6	 	 Q7: 3 	  Q5: 2 	  Q3: 2 	  Q1: 1 	  Q9: 0 	  Q0: 1 	 
8	 	 	46.9	 	 Q7: 0 	  Q5: 3 	  Q0: 3 	 
9	 	 	77.4	 	 Q1: 1 	  Q4: 2 	  Q2: 1 	  Q6: 0 	  Q9: 1 	  Q7: 0 	  Q0: 2 	 
10	 	 	98.0	 	 Q8: 1 	 
========================================================== 
TaskID 	 Duration 	 Skill 	 Predecessor IDs 
1	26	Q9:	0
2	18	Q9:	1
3	25	Q8:	2
4	39	Q1:	2
5	37	Q6:	0
6	38	Q5:	3
7	18	Q5:	1
8	32	Q6:	2
9	12	Q6:	3
10	31	Q1:	2
11	17	Q3:	3
12	22	Q6:	0
13	11	Q7:	2
14	22	Q9:	1
15	22	Q1:	1
16	14	Q5:	1
17	17	Q7:	3
18	19	Q5:	2
19	31	Q5:	3
20	19	Q0:	3
21	39	Q9:	2
22	19	Q4:	2
23	10	Q0:	3
24	21	Q9:	1
25	40	Q6:	2
26	16	Q7:	2
27	30	Q9:	3
28	33	Q9:	0
29	40	Q6:	2	27
30	22	Q8:	1
31	19	Q9:	0
32	34	Q2:	0
33	34	Q5:	2
34	18	Q5:	3	23
35	21	Q5:	3
36	34	Q9:	2
37	19	Q0:	1
38	26	Q6:	3
39	17	Q8:	2
40	27	Q8:	2
41	39	Q0:	0
42	38	Q0:	2
43	18	Q9:	0	25
44	23	Q0:	1
45	28	Q8:	1
46	16	Q2:	0
47	15	Q9:	2	39
48	33	Q5:	3
49	17	Q2:	1	2
50	17	Q0:	0
51	14	Q1:	1
52	15	Q4:	2
53	30	Q7:	2
54	18	Q5:	3
55	34	Q6:	2
56	21	Q6:	3
57	25	Q3:	3	39
58	38	Q8:	1
59	39	Q2:	0
60	11	Q0:	3
61	29	Q6:	0
62	33	Q0:	1
63	22	Q8:	2
64	26	Q7:	3
65	37	Q1:	2	5
66	11	Q9:	3
67	11	Q3:	3
68	26	Q0:	3
69	26	Q2:	1
70	22	Q8:	1
71	27	Q7:	2
72	34	Q0:	3	66	67
73	30	Q5:	1
74	19	Q9:	2	47
75	18	Q6:	3
76	14	Q2:	2
77	13	Q1:	2
78	37	Q8:	1
79	10	Q5:	1	28
80	39	Q0:	3
81	25	Q9:	3
82	35	Q9:	2	61	16	76	77
83	18	Q5:	2
84	31	Q5:	1	52
85	11	Q1:	2	50	42
86	36	Q0:	2
87	11	Q6:	0	61
88	12	Q7:	0
89	14	Q4:	2
90	39	Q8:	2
91	15	Q1:	2
92	25	Q0:	0
93	34	Q9:	1
94	40	Q9:	2
95	27	Q4:	2
96	12	Q9:	3	8
97	31	Q3:	2
98	26	Q3:	0
99	21	Q7:	2
100	25	Q7:	2
101	32	Q8:	2
102	39	Q0:	0	100
103	28	Q4:	2	82
104	10	Q9:	0
105	20	Q0:	0
106	27	Q9:	3
107	34	Q2:	2
108	11	Q3:	2
109	9	Q9:	3
110	38	Q0:	1
111	38	Q1:	2	51
112	30	Q7:	0
113	28	Q1:	2
114	38	Q3:	0
115	33	Q5:	1	75
116	15	Q1:	2
117	12	Q1:	2
118	32	Q6:	2
119	20	Q7:	2
120	23	Q0:	3
121	11	Q0:	1
122	24	Q7:	0
123	9	Q6:	0	103	61	93	25
124	25	Q8:	2
125	26	Q6:	3
126	14	Q0:	2
127	11	Q6:	3
128	35	Q9:	0
129	30	Q8:	1
130	23	Q6:	2	36
131	24	Q1:	1
132	10	Q7:	0
133	9	Q9:	2
134	15	Q6:	3
135	13	Q5:	2	63
136	37	Q8:	1
137	24	Q8:	2
138	19	Q7:	0
139	39	Q3:	2	108
140	17	Q8:	2
141	19	Q9:	2
142	25	Q3:	2
143	10	Q9:	2
144	25	Q1:	2	54
145	31	Q3:	3
146	17	Q9:	3
147	30	Q7:	2
148	30	Q5:	3
149	17	Q6:	2	92
150	30	Q9:	2
151	38	Q5:	3
152	35	Q0:	2
153	9	Q2:	0
154	35	Q5:	2
155	30	Q6:	3	39
156	18	Q2:	0	44
157	33	Q7:	3
158	32	Q6:	3
159	29	Q6:	0	103
160	16	Q5:	3
161	10	Q2:	2
162	34	Q7:	3
163	9	Q8:	2
164	14	Q6:	2
165	34	Q2:	1
166	17	Q7:	2
167	12	Q5:	3
168	27	Q2:	2	154
169	37	Q8:	2
170	16	Q8:	1	93
171	33	Q6:	3	130
172	23	Q5:	2
173	11	Q9:	0
174	31	Q6:	2
175	22	Q0:	3	82	143
176	17	Q6:	2	100
177	37	Q2:	0	136
178	37	Q7:	2	130
179	37	Q9:	0	165	40
180	18	Q9:	1
181	34	Q3:	0	5
182	9	Q2:	0	151
183	29	Q3:	2
184	11	Q9:	1	180
185	39	Q1:	2	165
186	34	Q8:	2	141
187	25	Q3:	0
188	17	Q3:	0	107
189	18	Q2:	1	71
190	31	Q9:	2	25
191	21	Q0:	3	138
192	23	Q7:	0	96
193	10	Q2:	0
194	30	Q9:	0
195	28	Q0:	1	138
196	16	Q5:	1
197	37	Q5:	1	101	91
198	33	Q2:	2
199	29	Q9:	2	13	177	151	171
200	12	Q6:	3	107
========================================================== 